\ Model gbpp
\ LP format - for model browsing. Use MPS format to capture full model detail.
Minimize
  108.3404400940515 Y[0] + 114.4064898688432 Y[1] + 100.0022874963469 Y[2]
   + 106.0466514526368 Y[3] + 102.9351178163423 Y[4]
   + 101.846771895376 Y[5] + 103.7252042275534 Y[6] + 106.911214540861 Y[7]
   + 107.9353494846134 Y[8] + 110.7763346800671 Y[9]
   - 11.75623487278189 X[3,0] - 11.75623487278189 X[3,1]
   - 11.75623487278189 X[3,2] - 11.75623487278189 X[3,3]
   - 11.75623487278189 X[3,4] - 11.75623487278189 X[3,5]
   - 11.75623487278189 X[3,6] - 11.75623487278189 X[3,7]
   - 11.75623487278189 X[3,8] - 11.75623487278189 X[3,9]
   - 10.05477518639585 X[4,0] - 10.05477518639585 X[4,1]
   - 10.05477518639585 X[4,2] - 10.05477518639585 X[4,3]
   - 10.05477518639585 X[4,4] - 10.05477518639585 X[4,5]
   - 10.05477518639585 X[4,6] - 10.05477518639585 X[4,7]
   - 10.05477518639585 X[4,8] - 10.05477518639585 X[4,9]
   - 11.3409350203568 X[5,0] - 11.3409350203568 X[5,1]
   - 11.3409350203568 X[5,2] - 11.3409350203568 X[5,3]
   - 11.3409350203568 X[5,4] - 11.3409350203568 X[5,5]
   - 11.3409350203568 X[5,6] - 11.3409350203568 X[5,7]
   - 11.3409350203568 X[5,8] - 11.3409350203568 X[5,9]
Subject To
 capacity_contraint[0]: - 140.3548844131493 Y[0] + 2.669219209468508 X[0,0]
   + 3.234759313783007 X[1,0] + 1.561547754380935 X[2,0]
   + 1.792405956339515 X[3,0] + 4.202978274702147 X[4,0]
   + 4.87304630287759 X[5,0] <= 0
 capacity_contraint[1]: - 285.8518844170166 Y[1] + 2.669219209468508 X[0,1]
   + 3.234759313783007 X[1,1] + 1.561547754380935 X[2,1]
   + 1.792405956339515 X[3,1] + 4.202978274702147 X[4,1]
   + 4.87304630287759 X[5,1] <= 0
 capacity_contraint[2]: - 356.5334344816787 Y[2] + 2.669219209468508 X[0,2]
   + 3.234759313783007 X[1,2] + 1.561547754380935 X[2,2]
   + 1.792405956339515 X[3,2] + 4.202978274702147 X[4,2]
   + 4.87304630287759 X[5,2] <= 0
 capacity_contraint[3]: - 363.5289587854774 Y[3] + 2.669219209468508 X[0,3]
   + 3.234759313783007 X[1,3] + 1.561547754380935 X[2,3]
   + 1.792405956339515 X[3,3] + 4.202978274702147 X[4,3]
   + 4.87304630287759 X[5,3] <= 0
 capacity_contraint[4]: - 52.65697716599472 Y[4] + 2.669219209468508 X[0,4]
   + 3.234759313783007 X[1,4] + 1.561547754380935 X[2,4]
   + 1.792405956339515 X[3,4] + 4.202978274702147 X[4,4]
   + 4.87304630287759 X[5,4] <= 0
 capacity_contraint[5]: - 34.99703676142683 Y[5] + 2.669219209468508 X[0,5]
   + 3.234759313783007 X[1,5] + 1.561547754380935 X[2,5]
   + 1.792405956339515 X[3,5] + 4.202978274702147 X[4,5]
   + 4.87304630287759 X[5,5] <= 0
 capacity_contraint[6]: - 85.21488111279446 Y[6] + 2.669219209468508 X[0,6]
   + 3.234759313783007 X[1,6] + 1.561547754380935 X[2,6]
   + 1.792405956339515 X[3,6] + 4.202978274702147 X[4,6]
   + 4.87304630287759 X[5,6] <= 0
 capacity_contraint[7]: - 357.2067213168946 Y[7] + 2.669219209468508 X[0,7]
   + 3.234759313783007 X[1,7] + 1.561547754380935 X[2,7]
   + 1.792405956339515 X[3,7] + 4.202978274702147 X[4,7]
   + 4.87304630287759 X[5,7] <= 0
 capacity_contraint[8]: - 57.76518419189124 Y[8] + 2.669219209468508 X[0,8]
   + 3.234759313783007 X[1,8] + 1.561547754380935 X[2,8]
   + 1.792405956339515 X[3,8] + 4.202978274702147 X[4,8]
   + 4.87304630287759 X[5,8] <= 0
 capacity_contraint[9]: - 181.70532800194 Y[9] + 2.669219209468508 X[0,9]
   + 3.234759313783007 X[1,9] + 1.561547754380935 X[2,9]
   + 1.792405956339515 X[3,9] + 4.202978274702147 X[4,9]
   + 4.87304630287759 X[5,9] <= 0
 compulsory_item[0]: X[0,0] + X[0,1] + X[0,2] + X[0,3] + X[0,4] + X[0,5]
   + X[0,6] + X[0,7] + X[0,8] + X[0,9] = 1
 compulsory_item[1]: X[1,0] + X[1,1] + X[1,2] + X[1,3] + X[1,4] + X[1,5]
   + X[1,6] + X[1,7] + X[1,8] + X[1,9] = 1
 compulsory_item[2]: X[2,0] + X[2,1] + X[2,2] + X[2,3] + X[2,4] + X[2,5]
   + X[2,6] + X[2,7] + X[2,8] + X[2,9] = 1
 non_compulsory_item[3]: X[3,0] + X[3,1] + X[3,2] + X[3,3] + X[3,4]
   + X[3,5] + X[3,6] + X[3,7] + X[3,8] + X[3,9] <= 1
 non_compulsory_item[4]: X[4,0] + X[4,1] + X[4,2] + X[4,3] + X[4,4]
   + X[4,5] + X[4,6] + X[4,7] + X[4,8] + X[4,9] <= 1
 non_compulsory_item[5]: X[5,0] + X[5,1] + X[5,2] + X[5,3] + X[5,4]
   + X[5,5] + X[5,6] + X[5,7] + X[5,8] + X[5,9] <= 1
Bounds
Binaries
 Y[0] Y[1] Y[2] Y[3] Y[4] Y[5] Y[6] Y[7] Y[8] Y[9] X[0,0] X[0,1] X[0,2]
 X[0,3] X[0,4] X[0,5] X[0,6] X[0,7] X[0,8] X[0,9] X[1,0] X[1,1] X[1,2]
 X[1,3] X[1,4] X[1,5] X[1,6] X[1,7] X[1,8] X[1,9] X[2,0] X[2,1] X[2,2]
 X[2,3] X[2,4] X[2,5] X[2,6] X[2,7] X[2,8] X[2,9] X[3,0] X[3,1] X[3,2]
 X[3,3] X[3,4] X[3,5] X[3,6] X[3,7] X[3,8] X[3,9] X[4,0] X[4,1] X[4,2]
 X[4,3] X[4,4] X[4,5] X[4,6] X[4,7] X[4,8] X[4,9] X[5,0] X[5,1] X[5,2]
 X[5,3] X[5,4] X[5,5] X[5,6] X[5,7] X[5,8] X[5,9]
End
